     Program PWSCF v.6.8 starts on 21Oct2021 at 17:44:22

     R & G space division:  proc/nbgrp/npool/nimage =      24

     Reading input from Dst01_07.in

     Current dimensions of program PWSCF are:
     Max number of different atomic species (ntypx) = 10
     Max number of k-points (npk) =  40000
     Max angular momentum in pseudopotentials (lmaxx) =  4
     Message from routine iosys:
     BEWARE:  force calculation with tetrahedra (not recommanded)
     Message from routine iosys:
     BEWARE: stress calculation with tetrahedra (not recommanded)
     file Si.pbe-n-kjpaw_psl.1.0.0.UPF: wavefunction(s)  3S 3P renormalized
     file C.pbe-n-kjpaw_psl.1.0.0.UPF: wavefunction(s)  2S 2P renormalized

     Using Slab Decomposition

     bravais-lattice index     =            0
     lattice parameter (alat)  =       8.2762  a.u.
     unit-cell volume          =     142.2274 (a.u.)^3
     number of atoms/cell      =            2
     number of atomic types    =            2
     number of electrons       =         8.00
     number of Kohn-Sham states=            8
     kinetic-energy cutoff     =      60.0000  Ry
     charge density cutoff     =     480.0000  Ry
     scf convergence threshold =      1.0E-12
     mixing beta               =       0.7000
     number of iterations used =            8  plain     mixing
     energy convergence thresh.=      1.0E-05
     force convergence thresh. =      1.0E-04
     Exchange-correlation= SLA  PW   PBX  PBC
                           (   1   4   3   4   0   0   0)
     nstep                     =           50

     celldm(1)=   8.276169  celldm(2)=   0.000000  celldm(3)=   0.000000
     celldm(4)=   0.000000  celldm(5)=   0.000000  celldm(6)=   0.000000

     crystal axes: (cart. coord. in units of alat)
               a(1) = (  -0.499550  -0.000300   0.500150 )
               a(2) = (   0.001647   0.501197   0.501497 )
               a(3) = (  -0.499400   0.499700  -0.000150 )

     reciprocal axes: (cart. coord. in units 2 pi/alat)
               b(1) = ( -0.999108 -0.998207  1.000892 )
               b(2) = (  0.996125  0.995826  0.995528 )
               b(3) = ( -0.999710  1.001792 -0.997910 )

     PseudoPot. # 1 for Si read from file:
     /opt/pbe/Si.pbe-n-kjpaw_psl.1.0.0.UPF
     MD5 check sum: c0017aaf58f3391b47f56383898ff6ca
     Pseudo is Projector augmented-wave + core cor, Zval =  4.0
     Generated using 'atomic' code by A. Dal Corso  v.6.7MaX
     Shape of augmentation charge: PSQ
     Using radial grid of 1141 points,  6 beta functions with:
                l(1) =   0
                l(2) =   0
                l(3) =   1
                l(4) =   1
                l(5) =   2
                l(6) =   2
     Q(r) pseudized with 0 coefficients

     PseudoPot. # 2 for C  read from file:
     /opt/pbe/C.pbe-n-kjpaw_psl.1.0.0.UPF
     MD5 check sum: 8e1159f88321651dfc8dcabf1d078809
     Pseudo is Projector augmented-wave + core cor, Zval =  4.0
     Generated using 'atomic' code by A. Dal Corso  v.6.7MaX
     Shape of augmentation charge: PSQ
     Using radial grid of 1073 points,  4 beta functions with:
                l(1) =   0
                l(2) =   0
                l(3) =   1
                l(4) =   1
     Q(r) pseudized with 0 coefficients

     atomic species   valence    mass     pseudopotential
        Si             4.00    28.08500     Si( 1.00)
        C              4.00    12.01100     C ( 1.00)

     No symmetry found

   Cartesian axes

     site n.     atom                  positions (alat units)
         1           Si  tau(   1) = (  -0.2493256   0.2501491   0.2503741  )
         2           C   tau(   2) = (   0.0000000   0.0000000   0.0000000  )

     number of k points=  1376 (tetrahedron method)

     Number of k-points >= 100: set verbosity='high' to print them.

     Initial potential from superposition of free atoms

     starting charge    7.99940, renormalised to    8.00000
     Starting wfcs are    8 randomized atomic wfcs
     Checking if some PAW data can be deallocated...

     Self-consistent Calculation

     iteration #  1     ecut=    60.00 Ry     beta= 0.70
     Davidson diagonalization with overlap
     ethr =  1.00E-02,  avg # of iterations =  3.8

     total energy              =     -65.03971723 Ry
     estimated scf accuracy    <       0.43246334 Ry

[...]

     End of self-consistent calculation

     Number of k-points >= 100: set verbosity='high' to print the bands.

     the Fermi energy is    10.3405 ev

!    total energy              =     -65.20019170 Ry

     total all-electron energy =      -656.310154 Ry
     estimated scf accuracy    <          5.8E-13 Ry

     The total energy is the sum of the following terms:
     one-electron contribution =       5.94359160 Ry
     hartree contribution      =       2.34618785 Ry
     xc contribution           =     -10.94480618 Ry
     ewald contribution        =     -20.80322755 Ry
     one-center paw contrib.   =     -41.74193741 Ry

     convergence has been achieved in  11 iterations

     Forces acting on atoms (cartesian axes, Ry/au):

     atom    1 type  1   force =     0.00066451    0.00084364    0.00102102
     atom    2 type  2   force =    -0.00066451   -0.00084364   -0.00102102

     Total force =     0.002096     Total SCF correction =     0.000000

     Computing stress (Cartesian axis) and pressure

          total   stress  (Ry/bohr**3)                   (kbar)     P=       -7.08
  -0.00003764  -0.00006361  -0.00005285           -5.54       -9.36       -7.77
  -0.00006361  -0.00004809  -0.00004211           -9.36       -7.07       -6.19
  -0.00005285  -0.00004211  -0.00005861           -7.77       -6.19       -8.62

     BFGS Geometry Optimization
     Energy error            =      0.0E+00 Ry
     Gradient error          =      1.0E-03 Ry/Bohr

     number of scf cycles    =   1
     number of bfgs steps    =   0

     energy             new  =     -65.2001917019 Ry

     new trust radius        =       0.0014818170 bohr
     new conv_thr            =            1.0E-12 Ry

ATOMIC_POSITIONS (crystal)
Si            0.2499415063        0.2503043081        0.2498987387
C             0.0000584937       -0.0003043081        0.0001012613

     Writing output data file ./tmp/SiC.save/
     NEW-OLD atomic charge density approx. for the potential

[...]

     Threshold (ethr) on eigenvalues was too large:
     Diagonalizing with lowered threshold

     Davidson diagonalization with overlap
     ethr =  6.00E-09,  avg # of iterations =  2.0

[...]

     Energy error            =      2.7E-06 Ry
     Gradient error          =      2.5E-04 Ry/Bohr

     number of scf cycles    =   2
     number of bfgs steps    =   1

     energy             old  =     -65.2001917019 Ry
     energy             new  =     -65.2001944470 Ry

     CASE: energy            _new < energy            _old

     new trust radius        =       0.0004924893 bohr
     new conv_thr            =            1.0E-14 Ry

ATOMIC_POSITIONS (crystal)
Si            0.2499207538        0.2504057016        0.2498649158
C             0.0000792462       -0.0004057016        0.0001350842

     Writing output data file ./tmp/SiC.save/
     NEW-OLD atomic charge density approx. for the potential

     Self-consistent Calculation

[...]

     Threshold (ethr) on eigenvalues was too large:
     Diagonalizing with lowered threshold

     Davidson diagonalization with overlap
     ethr =  6.14E-10,  avg # of iterations =  2.2

[...]

     total energy              =     -65.20019463 Ry
     estimated scf accuracy    <          4.1E-14 Ry

     iteration #  6     ecut=    60.00 Ry     beta= 0.70
     Davidson diagonalization with overlap
     ethr =  1.00E-13,  avg # of iterations =  1.0

     End of self-consistent calculation

     Number of k-points >= 100: set verbosity='high' to print the bands.

     the Fermi energy is    10.3402 ev

!    total energy              =     -65.20019463 Ry

     total all-electron energy =      -656.310157 Ry
     estimated scf accuracy    <          3.8E-15 Ry

     The total energy is the sum of the following terms:
     one-electron contribution =       5.94371497 Ry
     hartree contribution      =       2.34613222 Ry
     xc contribution           =     -10.94478974 Ry
     ewald contribution        =     -20.80331732 Ry
     one-center paw contrib.   =     -41.74193475 Ry

     convergence has been achieved in   6 iterations

     Forces acting on atoms (cartesian axes, Ry/au):

     atom    1 type  1   force =     0.00000039   -0.00000072   -0.00000169
     atom    2 type  2   force =    -0.00000039    0.00000072    0.00000169

     Total force =     0.000003     Total SCF correction =     0.000000

     Computing stress (Cartesian axis) and pressure

          total   stress  (Ry/bohr**3)                   (kbar)     P=       -7.11
  -0.00003788  -0.00005824  -0.00004846           -5.57       -8.57       -7.13
  -0.00005824  -0.00004833  -0.00003871           -8.57       -7.11       -5.69
  -0.00004846  -0.00003871  -0.00005885           -7.13       -5.69       -8.66

     Energy error            =      1.8E-07 Ry
     Gradient error          =      1.7E-06 Ry/Bohr

     bfgs converged in   3 scf cycles and   2 bfgs steps
     (criteria: energy <  1.0E-05 Ry, force <  1.0E-04 Ry/Bohr)

     End of BFGS Geometry Optimization

     Final energy             =     -65.2001946284 Ry

     File ./tmp/SiC.bfgs deleted, as requested
Begin final coordinates

ATOMIC_POSITIONS (crystal)
Si            0.2499207538        0.2504057016        0.2498649158
C             0.0000792462       -0.0004057016        0.0001350842
End final coordinates

     Writing output data file ./tmp/SiC.save/

     General routines

     Parallel routines

   This run was terminated on:  17:47:58  21Oct2021

   JOB DONE.