     Program PWSCF v.6.8 starts on 21Oct2021 at 18: 1:31

     R & G space division:  proc/nbgrp/npool/nimage =      24

     Reading input from Dst01_11.in

     Current dimensions of program PWSCF are:
     Max number of different atomic species (ntypx) = 10
     Max number of k-points (npk) =  40000
     Max angular momentum in pseudopotentials (lmaxx) =  4
     Message from routine iosys:
     BEWARE:  force calculation with tetrahedra (not recommanded)
     Message from routine iosys:
     BEWARE: stress calculation with tetrahedra (not recommanded)
     file Si.pbe-n-kjpaw_psl.1.0.0.UPF: wavefunction(s)  3S 3P renormalized
     file C.pbe-n-kjpaw_psl.1.0.0.UPF: wavefunction(s)  2S 2P renormalized

     Using Slab Decomposition

     bravais-lattice index     =            0
     lattice parameter (alat)  =       8.2762  a.u.
     unit-cell volume          =     144.2266 (a.u.)^3
     number of atoms/cell      =            2
     number of atomic types    =            2
     number of electrons       =         8.00
     number of Kohn-Sham states=            8
     kinetic-energy cutoff     =      60.0000  Ry
     charge density cutoff     =     480.0000  Ry
     scf convergence threshold =      1.0E-12
     mixing beta               =       0.7000
     number of iterations used =            8  plain     mixing
     energy convergence thresh.=      1.0E-05
     force convergence thresh. =      1.0E-04
     Exchange-correlation= SLA  PW   PBX  PBC
                           (   1   4   3   4   0   0   0)
     nstep                     =           50

     celldm(1)=   8.276169  celldm(2)=   0.000000  celldm(3)=   0.000000
     celldm(4)=   0.000000  celldm(5)=   0.000000  celldm(6)=   0.000000

     crystal axes: (cart. coord. in units of alat)
               a(1) = (  -0.497749  -0.001508   0.500743 )
               a(2) = (   0.008184   0.505924   0.507419 )
               a(3) = (  -0.496995   0.498493  -0.000753 )

     reciprocal axes: (cart. coord. in units 2 pi/alat)
               b(1) = ( -0.995686 -0.991176  1.004314 )
               b(2) = (  0.981103  0.979633  0.978188 )
               b(3) = ( -0.998739  1.008812 -0.989731 )

     PseudoPot. # 1 for Si read from file:
     /opt/pbe/Si.pbe-n-kjpaw_psl.1.0.0.UPF
     MD5 check sum: c0017aaf58f3391b47f56383898ff6ca
     Pseudo is Projector augmented-wave + core cor, Zval =  4.0
     Generated using 'atomic' code by A. Dal Corso  v.6.7MaX
     Shape of augmentation charge: PSQ
     Using radial grid of 1141 points,  6 beta functions with:
                l(1) =   0
                l(2) =   0
                l(3) =   1
                l(4) =   1
                l(5) =   2
                l(6) =   2
     Q(r) pseudized with 0 coefficients

     PseudoPot. # 2 for C  read from file:
     /opt/pbe/C.pbe-n-kjpaw_psl.1.0.0.UPF
     MD5 check sum: 8e1159f88321651dfc8dcabf1d078809
     Pseudo is Projector augmented-wave + core cor, Zval =  4.0
     Generated using 'atomic' code by A. Dal Corso  v.6.7MaX
     Shape of augmentation charge: PSQ
     Using radial grid of 1073 points,  4 beta functions with:
                l(1) =   0
                l(2) =   0
                l(3) =   1
                l(4) =   1
     Q(r) pseudized with 0 coefficients

     atomic species   valence    mass     pseudopotential
        Si             4.00    28.08500     Si( 1.00)
        C              4.00    12.01100     C ( 1.00)

     No symmetry found

   Cartesian axes

     site n.     atom                  positions (alat units)
         1           Si  tau(   1) = (  -0.2466401   0.2507273   0.2518521  )
         2           C   tau(   2) = (   0.0000000   0.0000000   0.0000000  )

     number of k points=  1376 (tetrahedron method)

     Number of k-points >= 100: set verbosity='high' to print them.

     Initial potential from superposition of free atoms

     starting charge    7.99940, renormalised to    8.00000
     Starting wfcs are    8 randomized atomic wfcs
     Checking if some PAW data can be deallocated...

     Self-consistent Calculation

     iteration #  1     ecut=    60.00 Ry     beta= 0.70
     Davidson diagonalization with overlap
     ethr =  1.00E-02,  avg # of iterations =  3.8

     total energy              =     -65.03940073 Ry
     estimated scf accuracy    <       0.42750225 Ry

[...]

     End of self-consistent calculation

     Number of k-points >= 100: set verbosity='high' to print the bands.

     the Fermi energy is    10.1162 ev

!    total energy              =     -65.19910821 Ry

     total all-electron energy =      -656.309070 Ry
     estimated scf accuracy    <          3.5E-14 Ry

     The total energy is the sum of the following terms:
     one-electron contribution =       5.81093440 Ry
     hartree contribution      =       2.35850134 Ry
     xc contribution           =     -10.92360630 Ry
     ewald contribution        =     -20.70424335 Ry
     one-center paw contrib.   =     -41.74069430 Ry

     convergence has been achieved in  12 iterations

     Forces acting on atoms (cartesian axes, Ry/au):

     atom    1 type  1   force =     0.00244677    0.00336337    0.00423721
     atom    2 type  2   force =    -0.00244677   -0.00336337   -0.00423721

     Total force =     0.008397     Total SCF correction =     0.000000

     Computing stress (Cartesian axis) and pressure

          total   stress  (Ry/bohr**3)                   (kbar)     P=      -34.29
  -0.00018058  -0.00030131  -0.00024745          -26.56      -44.32      -36.40
  -0.00030131  -0.00023250  -0.00019385          -44.32      -34.20      -28.52
  -0.00024745  -0.00019385  -0.00028632          -36.40      -28.52      -42.12

     BFGS Geometry Optimization
     Energy error            =      0.0E+00 Ry
     Gradient error          =      4.2E-03 Ry/Bohr

     number of scf cycles    =   1
     number of bfgs steps    =   0

     energy             new  =     -65.1991082097 Ry

     new trust radius        =       0.0059374119 bohr
     new conv_thr            =            1.0E-12 Ry

ATOMIC_POSITIONS (crystal)
Si            0.2498170157        0.2511889781        0.2496079851
C             0.0001829843       -0.0011889781        0.0003920149

     Writing output data file ./tmp/SiC.save/
     NEW-OLD atomic charge density approx. for the potential

[...]

     Threshold (ethr) on eigenvalues was too large:
     Diagonalizing with lowered threshold

     Davidson diagonalization with overlap
     ethr =  9.47E-08,  avg # of iterations =  1.1

[...]

     Energy error            =      4.6E-05 Ry
     Gradient error          =      1.2E-03 Ry/Bohr

     number of scf cycles    =   2
     number of bfgs steps    =   1

     energy             old  =     -65.1991082097 Ry
     energy             new  =     -65.1991544670 Ry

     CASE: energy            _new < energy            _old

     new trust radius        =       0.0026758835 bohr
     new conv_thr            =            4.6E-14 Ry

ATOMIC_POSITIONS (crystal)
Si            0.2497026903        0.2517316341        0.2494263870
C             0.0002973097       -0.0017316341        0.0005736130

     Writing output data file ./tmp/SiC.save/
     NEW-OLD atomic charge density approx. for the potential

     Self-consistent Calculation

[...]

     Threshold (ethr) on eigenvalues was too large:
     Diagonalizing with lowered threshold

     Davidson diagonalization with overlap
     ethr =  1.88E-08,  avg # of iterations =  2.0

[...]

     total energy              =     -65.19915933 Ry
     estimated scf accuracy    <          1.1E-13 Ry

     iteration #  7     ecut=    60.00 Ry     beta= 0.70
     Davidson diagonalization with overlap
     ethr =  1.00E-13,  avg # of iterations =  1.0

     End of self-consistent calculation

     Number of k-points >= 100: set verbosity='high' to print the bands.

     the Fermi energy is    10.1132 ev

!    total energy              =     -65.19915933 Ry

     total all-electron energy =      -656.309121 Ry
     estimated scf accuracy    <          3.2E-15 Ry

     The total energy is the sum of the following terms:
     one-electron contribution =       5.81363699 Ry
     hartree contribution      =       2.35726601 Ry
     xc contribution           =     -10.92324792 Ry
     ewald contribution        =     -20.70617447 Ry
     one-center paw contrib.   =     -41.74063994 Ry

     convergence has been achieved in   7 iterations

     Forces acting on atoms (cartesian axes, Ry/au):

     atom    1 type  1   force =     0.00001364   -0.00001405   -0.00003875
     atom    2 type  2   force =    -0.00001364    0.00001405    0.00003875

     Total force =     0.000061     Total SCF correction =     0.000000

     Computing stress (Cartesian axis) and pressure

          total   stress  (Ry/bohr**3)                   (kbar)     P=      -35.04
  -0.00018558  -0.00028245  -0.00023348          -27.30      -41.55      -34.35
  -0.00028245  -0.00023757  -0.00018530          -41.55      -34.95      -27.26
  -0.00023348  -0.00018530  -0.00029148          -34.35      -27.26      -42.88

     Energy error            =      4.9E-06 Ry
     Gradient error          =      3.9E-05 Ry/Bohr

     bfgs converged in   3 scf cycles and   2 bfgs steps
     (criteria: energy <  1.0E-05 Ry, force <  1.0E-04 Ry/Bohr)

     End of BFGS Geometry Optimization

     Final energy             =     -65.1991593335 Ry

     File ./tmp/SiC.bfgs deleted, as requested
Begin final coordinates

ATOMIC_POSITIONS (crystal)
Si            0.2497026903        0.2517316341        0.2494263870
C             0.0002973097       -0.0017316341        0.0005736130
End final coordinates

     Writing output data file ./tmp/SiC.save/

     General routines

     Parallel routines

   This run was terminated on:  18: 5:37  21Oct2021

   JOB DONE.