     Program PWSCF v.6.8 starts on 21Oct2021 at 17:52:21

     R & G space division:  proc/nbgrp/npool/nimage =      24

     Reading input from Dst03_11.in

     Current dimensions of program PWSCF are:
     Max number of different atomic species (ntypx) = 10
     Max number of k-points (npk) =  40000
     Max angular momentum in pseudopotentials (lmaxx) =  4
     Message from routine iosys:
     BEWARE:  force calculation with tetrahedra (not recommanded)
     Message from routine iosys:
     BEWARE: stress calculation with tetrahedra (not recommanded)
     file Si.pbe-n-kjpaw_psl.1.0.0.UPF: wavefunction(s)  3S 3P renormalized
     file C.pbe-n-kjpaw_psl.1.0.0.UPF: wavefunction(s)  2S 2P renormalized
     Message from routine setup:
     using ibrav=0 with symmetry is DISCOURAGED, use correct ibrav instead

     Using Slab Decomposition

     bravais-lattice index     =            0
     lattice parameter (alat)  =       8.2762  a.u.
     unit-cell volume          =     139.7208 (a.u.)^3
     number of atoms/cell      =            2
     number of atomic types    =            2
     number of electrons       =         8.00
     number of Kohn-Sham states=            8
     kinetic-energy cutoff     =      60.0000  Ry
     charge density cutoff     =     480.0000  Ry
     scf convergence threshold =      1.0E-12
     mixing beta               =       0.7000
     number of iterations used =            8  plain     mixing
     energy convergence thresh.=      1.0E-05
     force convergence thresh. =      1.0E-04
     Exchange-correlation= SLA  PW   PBX  PBC
                           (   1   4   3   4   0   0   0)
     nstep                     =           50

     celldm(1)=   8.276169  celldm(2)=   0.000000  celldm(3)=   0.000000
     celldm(4)=   0.000000  celldm(5)=   0.000000  celldm(6)=   0.000000

     crystal axes: (cart. coord. in units of alat)
               a(1) = (  -0.474342   0.000000   0.474342 )
               a(2) = (   0.048921   0.523262   0.523262 )
               a(3) = (  -0.474342   0.474342   0.000000 )

     reciprocal axes: (cart. coord. in units 2 pi/alat)
               b(1) = ( -1.007019 -1.007019  1.101166 )
               b(2) = (  0.912871  0.912871  0.912871 )
               b(3) = ( -1.007019  1.101166 -1.007019 )

     PseudoPot. # 1 for Si read from file:
     /opt/pbe/Si.pbe-n-kjpaw_psl.1.0.0.UPF
     MD5 check sum: c0017aaf58f3391b47f56383898ff6ca
     Pseudo is Projector augmented-wave + core cor, Zval =  4.0
     Generated using 'atomic' code by A. Dal Corso  v.6.7MaX
     Shape of augmentation charge: PSQ
     Using radial grid of 1141 points,  6 beta functions with:
                l(1) =   0
                l(2) =   0
                l(3) =   1
                l(4) =   1
                l(5) =   2
                l(6) =   2
     Q(r) pseudized with 0 coefficients

     PseudoPot. # 2 for C  read from file:
     /opt/pbe/C.pbe-n-kjpaw_psl.1.0.0.UPF
     MD5 check sum: 8e1159f88321651dfc8dcabf1d078809
     Pseudo is Projector augmented-wave + core cor, Zval =  4.0
     Generated using 'atomic' code by A. Dal Corso  v.6.7MaX
     Shape of augmentation charge: PSQ
     Using radial grid of 1073 points,  4 beta functions with:
                l(1) =   0
                l(2) =   0
                l(3) =   1
                l(4) =   1
     Q(r) pseudized with 0 coefficients

     atomic species   valence    mass     pseudopotential
        Si             4.00    28.08500     Si( 1.00)
        C              4.00    12.01100     C ( 1.00)

      6 Sym. Ops. (no inversion) found

   Cartesian axes

     site n.     atom                  positions (alat units)
         1           Si  tau(   1) = (  -0.2249407   0.2494010   0.2494010  )
         2           C   tau(   2) = (   0.0000000   0.0000000   0.0000000  )

     number of k points=   288 (tetrahedron method)

     Number of k-points >= 100: set verbosity='high' to print them.

     Initial potential from superposition of free atoms

     starting charge    7.99940, renormalised to    8.00000
     Starting wfcs are    8 randomized atomic wfcs
     Checking if some PAW data can be deallocated...

     Self-consistent Calculation

     iteration #  1     ecut=    60.00 Ry     beta= 0.70
     Davidson diagonalization with overlap
     ethr =  1.00E-02,  avg # of iterations =  4.0

     total energy              =     -64.99080869 Ry
     estimated scf accuracy    <       0.47307809 Ry

[...]

     End of self-consistent calculation

     Number of k-points >= 100: set verbosity='high' to print the bands.

     the Fermi energy is    10.2984 ev

!    total energy              =     -65.16657887 Ry

     total all-electron energy =      -656.276541 Ry
     estimated scf accuracy    <          2.4E-14 Ry

     The total energy is the sum of the following terms:
     one-electron contribution =       5.96402902 Ry
     hartree contribution      =       2.41824007 Ry
     xc contribution           =     -10.98498609 Ry
     ewald contribution        =     -20.81654408 Ry
     one-center paw contrib.   =     -41.74731780 Ry

     convergence has been achieved in  11 iterations

     Forces acting on atoms (cartesian axes, Ry/au):

     atom    1 type  1   force =     0.01184120    0.01184120    0.01184120
     atom    2 type  2   force =    -0.01184120   -0.01184120   -0.01184120

     Total force =     0.029005     Total SCF correction =     0.000000

     Computing stress (Cartesian axis) and pressure

          total   stress  (Ry/bohr**3)                   (kbar)     P=       90.04
   0.00061211  -0.00160650  -0.00160650           90.04     -236.32     -236.32
  -0.00160650   0.00061211  -0.00160650         -236.32       90.04     -236.32
  -0.00160650  -0.00160650   0.00061211         -236.32     -236.32       90.04

     BFGS Geometry Optimization
     Energy error            =      0.0E+00 Ry
     Gradient error          =      1.2E-02 Ry/Bohr

     number of scf cycles    =   1
     number of bfgs steps    =   0

     energy             new  =     -65.1665788728 Ry

     new trust radius        =       0.0205095563 bohr
     new conv_thr            =            1.0E-12 Ry

ATOMIC_POSITIONS (crystal)
Si            0.2486939023        0.2539182931        0.2486939023
C             0.0013060977       -0.0039182931        0.0013060977

     Writing output data file ./tmp/SiC.save/
     NEW-OLD atomic charge density approx. for the potential

[...]

     Energy error            =      6.3E-04 Ry
     Gradient error          =      5.8E-03 Ry/Bohr

[...]

     energy             old  =     -65.1665788728 Ry
     energy             new  =     -65.1672075103 Ry

     CASE: energy            _new < energy            _old

[...]

     number of scf cycles    =   3
     number of bfgs steps    =   2

     energy             old  =     -65.1672075103 Ry
     energy             new  =     -65.1673902096 Ry

     CASE: energy            _new < energy            _old

     new trust radius        =       0.0013989513 bohr
     new conv_thr            =            4.5E-14 Ry

ATOMIC_POSITIONS (crystal)
Si            0.2475393254        0.2573820238        0.2475393254
C             0.0024606746       -0.0073820238        0.0024606746

     Writing output data file ./tmp/SiC.save/
     NEW-OLD atomic charge density approx. for the potential

     Self-consistent Calculation

[...]

     Threshold (ethr) on eigenvalues was too large:
     Diagonalizing with lowered threshold

     Davidson diagonalization with overlap
     ethr =  5.39E-09,  avg # of iterations =  2.0

[...]

     total energy              =     -65.16739126 Ry
     estimated scf accuracy    <          1.7E-13 Ry

     iteration #  7     ecut=    60.00 Ry     beta= 0.70
     Davidson diagonalization with overlap
     ethr =  1.00E-13,  avg # of iterations =  1.0

     End of self-consistent calculation

     Number of k-points >= 100: set verbosity='high' to print the bands.

     the Fermi energy is    10.2770 ev

!    total energy              =     -65.16739126 Ry

     total all-electron energy =      -656.277353 Ry
     estimated scf accuracy    <          2.7E-15 Ry

     The total energy is the sum of the following terms:
     one-electron contribution =       6.04754744 Ry
     hartree contribution      =       2.38029446 Ry
     xc contribution           =     -10.97454316 Ry
     ewald contribution        =     -20.87493195 Ry
     one-center paw contrib.   =     -41.74575805 Ry

     convergence has been achieved in   7 iterations

     Forces acting on atoms (cartesian axes, Ry/au):

     atom    1 type  1   force =     0.00001440    0.00001440    0.00001440
     atom    2 type  2   force =    -0.00001440   -0.00001440   -0.00001440

     Total force =     0.000035     Total SCF correction =     0.000000

     Computing stress (Cartesian axis) and pressure

          total   stress  (Ry/bohr**3)                   (kbar)     P=       68.12
   0.00046306  -0.00161291  -0.00161291           68.12     -237.27     -237.27
  -0.00161291   0.00046306  -0.00161291         -237.27       68.12     -237.27
  -0.00161291  -0.00161291   0.00046306         -237.27     -237.27       68.12

     Energy error            =      1.0E-06 Ry
     Gradient error          =      1.4E-05 Ry/Bohr

     bfgs converged in   4 scf cycles and   3 bfgs steps
     (criteria: energy <  1.0E-05 Ry, force <  1.0E-04 Ry/Bohr)

     End of BFGS Geometry Optimization

     Final energy             =     -65.1673912559 Ry

     File ./tmp/SiC.bfgs deleted, as requested
Begin final coordinates

ATOMIC_POSITIONS (crystal)
Si            0.2475393254        0.2573820238        0.2475393254
C             0.0024606746       -0.0073820238        0.0024606746
End final coordinates

     Writing output data file ./tmp/SiC.save/

     General routines

     Parallel routines

   This run was terminated on:  17:53:31  21Oct2021

   JOB DONE.