     Program PWSCF v.6.8 starts on 21Oct2021 at 17:25:15

     R & G space division:  proc/nbgrp/npool/nimage =      24

     Reading input from Dst01_02.in

     Current dimensions of program PWSCF are:
     Max number of different atomic species (ntypx) = 10
     Max number of k-points (npk) =  40000
     Max angular momentum in pseudopotentials (lmaxx) =  4
     Message from routine iosys:
     BEWARE:  force calculation with tetrahedra (not recommanded)
     Message from routine iosys:
     BEWARE: stress calculation with tetrahedra (not recommanded)
     file Si.pbe-n-kjpaw_psl.1.0.0.UPF: wavefunction(s)  3S 3P renormalized
     file C.pbe-n-kjpaw_psl.1.0.0.UPF: wavefunction(s)  2S 2P renormalized

     Using Slab Decomposition

     bravais-lattice index     =            0
     lattice parameter (alat)  =       8.2762  a.u.
     unit-cell volume          =     139.6497 (a.u.)^3
     number of atoms/cell      =            2
     number of atomic types    =            2
     number of electrons       =         8.00
     number of Kohn-Sham states=            8
     kinetic-energy cutoff     =      60.0000  Ry
     charge density cutoff     =     480.0000  Ry
     scf convergence threshold =      1.0E-12
     mixing beta               =       0.7000
     number of iterations used =            8  plain     mixing
     energy convergence thresh.=      1.0E-05
     force convergence thresh. =      1.0E-04
     Exchange-correlation= SLA  PW   PBX  PBC
                           (   1   4   3   4   0   0   0)
     nstep                     =           50

     celldm(1)=   8.276169  celldm(2)=   0.000000  celldm(3)=   0.000000
     celldm(4)=   0.000000  celldm(5)=   0.000000  celldm(6)=   0.000000

     crystal axes: (cart. coord. in units of alat)
               a(1) = (  -0.501800   0.001195   0.499395 )
               a(2) = (  -0.006644   0.495149   0.493946 )
               a(3) = (  -0.502397   0.501196   0.000598 )

     reciprocal axes: (cart. coord. in units 2 pi/alat)
               b(1) = ( -1.003726 -1.007320  0.996273 )
               b(2) = (  1.016011  1.017231  1.018469 )
               b(3) = ( -1.001361  0.992670 -1.008558 )

     PseudoPot. # 1 for Si read from file:
     /opt/pbe/Si.pbe-n-kjpaw_psl.1.0.0.UPF
     MD5 check sum: c0017aaf58f3391b47f56383898ff6ca
     Pseudo is Projector augmented-wave + core cor, Zval =  4.0
     Generated using 'atomic' code by A. Dal Corso  v.6.7MaX
     Shape of augmentation charge: PSQ
     Using radial grid of 1141 points,  6 beta functions with:
                l(1) =   0
                l(2) =   0
                l(3) =   1
                l(4) =   1
                l(5) =   2
                l(6) =   2
     Q(r) pseudized with 0 coefficients

     PseudoPot. # 2 for C  read from file:
     /opt/pbe/C.pbe-n-kjpaw_psl.1.0.0.UPF
     MD5 check sum: 8e1159f88321651dfc8dcabf1d078809
     Pseudo is Projector augmented-wave + core cor, Zval =  4.0
     Generated using 'atomic' code by A. Dal Corso  v.6.7MaX
     Shape of augmentation charge: PSQ
     Using radial grid of 1073 points,  4 beta functions with:
                l(1) =   0
                l(2) =   0
                l(3) =   1
                l(4) =   1
     Q(r) pseudized with 0 coefficients

     atomic species   valence    mass     pseudopotential
        Si             4.00    28.08500     Si( 1.00)
        C              4.00    12.01100     C ( 1.00)

     No symmetry found

   Cartesian axes

     site n.     atom                  positions (alat units)
         1           Si  tau(   1) = (  -0.2527101   0.2493850   0.2484848  )
         2           C   tau(   2) = (   0.0000000   0.0000000   0.0000000  )

     number of k points=  1376 (tetrahedron method)

     Number of k-points >= 100: set verbosity='high' to print them.

     Initial potential from superposition of free atoms

     starting charge    7.99940, renormalised to    8.00000
     Starting wfcs are    8 randomized atomic wfcs
     Checking if some PAW data can be deallocated...

     Self-consistent Calculation

     iteration #  1     ecut=    60.00 Ry     beta= 0.70
     Davidson diagonalization with overlap
     ethr =  1.00E-02,  avg # of iterations =  3.9

     total energy              =     -65.03722917 Ry
     estimated scf accuracy    <       0.44067823 Ry

[...]

     iteration #  6     ecut=    60.00 Ry     beta= 0.70
     Davidson diagonalization with overlap
     c_bands:  1 eigenvalues not converged
     ethr =  3.23E-08,  avg # of iterations =  4.6

[...]

     End of self-consistent calculation

     Number of k-points >= 100: set verbosity='high' to print the bands.

     the Fermi energy is    10.6403 ev

!    total energy              =     -65.19937772 Ry

     total all-electron energy =      -656.309340 Ry
     estimated scf accuracy    <          8.3E-15 Ry

     The total energy is the sum of the following terms:
     one-electron contribution =       6.11297855 Ry
     hartree contribution      =       2.33375512 Ry
     xc contribution           =     -10.97347163 Ry
     ewald contribution        =     -20.92881782 Ry
     one-center paw contrib.   =     -41.74382193 Ry

     convergence has been achieved in  12 iterations

     Forces acting on atoms (cartesian axes, Ry/au):

     atom    1 type  1   force =    -0.00366913   -0.00435985   -0.00507886
     atom    2 type  2   force =     0.00366913    0.00435985    0.00507886

     Total force =     0.010795     Total SCF correction =     0.000000

     Computing stress (Cartesian axis) and pressure

          total   stress  (Ry/bohr**3)                   (kbar)     P=       33.84
   0.00018853   0.00027325   0.00023032           27.73       40.20       33.88
   0.00027325   0.00023045   0.00018724           40.20       33.90       27.54
   0.00023032   0.00018724   0.00027112           33.88       27.54       39.88

     BFGS Geometry Optimization
     Energy error            =      0.0E+00 Ry
     Gradient error          =      5.1E-03 Ry/Bohr

     number of scf cycles    =   1
     number of bfgs steps    =   0

     energy             new  =     -65.1993777228 Ry

     new trust radius        =       0.0076331916 bohr
     new conv_thr            =            1.0E-12 Ry

ATOMIC_POSITIONS (crystal)
Si            0.2503642559        0.2483886853        0.2505399296
C            -0.0003642559        0.0016113147       -0.0005399296

     Writing output data file ./tmp/SiC.save/
     NEW-OLD atomic charge density approx. for the potential

[...]

     Energy error            =      6.7E-05 Ry
     Gradient error          =      8.9E-04 Ry/Bohr

     number of scf cycles    =   2
     number of bfgs steps    =   1

     energy             old  =     -65.1993777228 Ry
     energy             new  =     -65.1994451805 Ry

     CASE: energy            _new < energy            _old

     new trust radius        =       0.0014858674 bohr
     new conv_thr            =            6.7E-14 Ry

ATOMIC_POSITIONS (crystal)
Si            0.2504135862        0.2480794557        0.2506426918
C            -0.0004135862        0.0019205443       -0.0006426918

     Writing output data file ./tmp/SiC.save/
     NEW-OLD atomic charge density approx. for the potential

     Self-consistent Calculation

[...]

     Threshold (ethr) on eigenvalues was too large:
     Diagonalizing with lowered threshold

     Davidson diagonalization with overlap
     ethr =  6.48E-09,  avg # of iterations =  2.0

[...]

     total energy              =     -65.19944706 Ry
     estimated scf accuracy    <          1.1E-12 Ry

     iteration #  6     ecut=    60.00 Ry     beta= 0.70
     Davidson diagonalization with overlap
     ethr =  1.00E-13,  avg # of iterations =  1.0

     End of self-consistent calculation

     Number of k-points >= 100: set verbosity='high' to print the bands.

     the Fermi energy is    10.6396 ev

!    total energy              =     -65.19944706 Ry

     total all-electron energy =      -656.309409 Ry
     estimated scf accuracy    <          3.1E-14 Ry

     The total energy is the sum of the following terms:
     one-electron contribution =       6.11528773 Ry
     hartree contribution      =       2.33269464 Ry
     xc contribution           =     -10.97315412 Ry
     ewald contribution        =     -20.93050448 Ry
     one-center paw contrib.   =     -41.74377084 Ry

     convergence has been achieved in   6 iterations

     Forces acting on atoms (cartesian axes, Ry/au):

     atom    1 type  1   force =     0.00000540   -0.00001276   -0.00002799
     atom    2 type  2   force =    -0.00000540    0.00001276    0.00002799

     Total force =     0.000044     Total SCF correction =     0.000000

     Computing stress (Cartesian axis) and pressure

          total   stress  (Ry/bohr**3)                   (kbar)     P=       33.12
   0.00018370   0.00024137   0.00020229           27.02       35.51       29.76
   0.00024137   0.00022560   0.00016270           35.51       33.19       23.93
   0.00020229   0.00016270   0.00026622           29.76       23.93       39.16

     Energy error            =      1.9E-06 Ry
     Gradient error          =      2.8E-05 Ry/Bohr

     bfgs converged in   3 scf cycles and   2 bfgs steps
     (criteria: energy <  1.0E-05 Ry, force <  1.0E-04 Ry/Bohr)

     End of BFGS Geometry Optimization

     Final energy             =     -65.1994470628 Ry

     File ./tmp/SiC.bfgs deleted, as requested
Begin final coordinates

ATOMIC_POSITIONS (crystal)
Si            0.2504135862        0.2480794557        0.2506426918
C            -0.0004135862        0.0019205443       -0.0006426918
End final coordinates

     Writing output data file ./tmp/SiC.save/

     General routines

     Parallel routines

   This run was terminated on:  17:29: 9  21Oct2021

   JOB DONE.