     Program PWSCF v.6.8 starts on 21Oct2021 at 17:50: 0

     R & G space division:  proc/nbgrp/npool/nimage =      24

     Reading input from Dst03_09.in

     Current dimensions of program PWSCF are:
     Max number of different atomic species (ntypx) = 10
     Max number of k-points (npk) =  40000
     Max angular momentum in pseudopotentials (lmaxx) =  4
     Message from routine iosys:
     BEWARE:  force calculation with tetrahedra (not recommanded)
     Message from routine iosys:
     BEWARE: stress calculation with tetrahedra (not recommanded)
     file Si.pbe-n-kjpaw_psl.1.0.0.UPF: wavefunction(s)  3S 3P renormalized
     file C.pbe-n-kjpaw_psl.1.0.0.UPF: wavefunction(s)  2S 2P renormalized
     Message from routine setup:
     using ibrav=0 with symmetry is DISCOURAGED, use correct ibrav instead

     Using Slab Decomposition

     bravais-lattice index     =            0
     lattice parameter (alat)  =       8.2762  a.u.
     unit-cell volume          =     140.9824 (a.u.)^3
     number of atoms/cell      =            2
     number of atomic types    =            2
     number of electrons       =         8.00
     number of Kohn-Sham states=            8
     kinetic-energy cutoff     =      60.0000  Ry
     charge density cutoff     =     480.0000  Ry
     scf convergence threshold =      1.0E-12
     mixing beta               =       0.7000
     number of iterations used =            8  plain     mixing
     energy convergence thresh.=      1.0E-05
     force convergence thresh. =      1.0E-04
     Exchange-correlation= SLA  PW   PBX  PBC
                           (   1   4   3   4   0   0   0)
     nstep                     =           50

     celldm(1)=   8.276169  celldm(2)=   0.000000  celldm(3)=   0.000000
     celldm(4)=   0.000000  celldm(5)=   0.000000  celldm(6)=   0.000000

     crystal axes: (cart. coord. in units of alat)
               a(1) = (  -0.484768   0.000000   0.484768 )
               a(2) = (   0.029588   0.514356   0.514356 )
               a(3) = (  -0.484768   0.484768   0.000000 )

     reciprocal axes: (cart. coord. in units 2 pi/alat)
               b(1) = ( -1.002585 -1.002585  1.060258 )
               b(2) = (  0.944911  0.944911  0.944911 )
               b(3) = ( -1.002585  1.060258 -1.002585 )

     PseudoPot. # 1 for Si read from file:
     /opt/pbe/Si.pbe-n-kjpaw_psl.1.0.0.UPF
     MD5 check sum: c0017aaf58f3391b47f56383898ff6ca
     Pseudo is Projector augmented-wave + core cor, Zval =  4.0
     Generated using 'atomic' code by A. Dal Corso  v.6.7MaX
     Shape of augmentation charge: PSQ
     Using radial grid of 1141 points,  6 beta functions with:
                l(1) =   0
                l(2) =   0
                l(3) =   1
                l(4) =   1
                l(5) =   2
                l(6) =   2
     Q(r) pseudized with 0 coefficients

     PseudoPot. # 2 for C  read from file:
     /opt/pbe/C.pbe-n-kjpaw_psl.1.0.0.UPF
     MD5 check sum: 8e1159f88321651dfc8dcabf1d078809
     Pseudo is Projector augmented-wave + core cor, Zval =  4.0
     Generated using 'atomic' code by A. Dal Corso  v.6.7MaX
     Shape of augmentation charge: PSQ
     Using radial grid of 1073 points,  4 beta functions with:
                l(1) =   0
                l(2) =   0
                l(3) =   1
                l(4) =   1
     Q(r) pseudized with 0 coefficients

     atomic species   valence    mass     pseudopotential
        Si             4.00    28.08500     Si( 1.00)
        C              4.00    12.01100     C ( 1.00)

      6 Sym. Ops. (no inversion) found

   Cartesian axes

     site n.     atom                  positions (alat units)
         1           Si  tau(   1) = (  -0.2349869   0.2497810   0.2497810  )
         2           C   tau(   2) = (   0.0000000   0.0000000   0.0000000  )

     number of k points=   288 (tetrahedron method)

     Number of k-points >= 100: set verbosity='high' to print them.

     Initial potential from superposition of free atoms

     starting charge    7.99940, renormalised to    8.00000
     Starting wfcs are    8 randomized atomic wfcs
     Checking if some PAW data can be deallocated...

     Self-consistent Calculation

     iteration #  1     ecut=    60.00 Ry     beta= 0.70
     Davidson diagonalization with overlap
     ethr =  1.00E-02,  avg # of iterations =  3.9

     total energy              =     -65.02133952 Ry
     estimated scf accuracy    <       0.44852639 Ry

[...]

     End of self-consistent calculation

     Number of k-points >= 100: set verbosity='high' to print the bands.

     the Fermi energy is    10.3210 ev

!    total energy              =     -65.18765305 Ry

     total all-electron energy =      -656.297615 Ry
     estimated scf accuracy    <          6.9E-13 Ry

     The total energy is the sum of the following terms:
     one-electron contribution =       5.97319181 Ry
     hartree contribution      =       2.37044214 Ry
     xc contribution           =     -10.96325362 Ry
     ewald contribution        =     -20.82384600 Ry
     one-center paw contrib.   =     -41.74418740 Ry

     convergence has been achieved in  11 iterations

     Forces acting on atoms (cartesian axes, Ry/au):

     atom    1 type  1   force =     0.01030940    0.01030940    0.01030940
     atom    2 type  2   force =    -0.01030940   -0.01030940   -0.01030940

     Total force =     0.025253     Total SCF correction =     0.000000

     Computing stress (Cartesian axis) and pressure

          total   stress  (Ry/bohr**3)                   (kbar)     P=       33.77
   0.00022953  -0.00099446  -0.00099446           33.77     -146.29     -146.29
  -0.00099446   0.00022953  -0.00099446         -146.29       33.77     -146.29
  -0.00099446  -0.00099446   0.00022953         -146.29     -146.29       33.77

     BFGS Geometry Optimization
     Energy error            =      0.0E+00 Ry
     Gradient error          =      1.0E-02 Ry/Bohr

     number of scf cycles    =   1
     number of bfgs steps    =   0

     energy             new  =     -65.1876530550 Ry

     new trust radius        =       0.0178563961 bohr
     new conv_thr            =            1.0E-12 Ry

ATOMIC_POSITIONS (crystal)
Si            0.2488229502        0.2535311493        0.2488229502
C             0.0011770498       -0.0035311493        0.0011770498

     Writing output data file ./tmp/SiC.save/
     NEW-OLD atomic charge density approx. for the potential

[...]

     Energy error            =      4.5E-04 Ry
     Gradient error          =      4.3E-03 Ry/Bohr

[...]

     energy             old  =     -65.1876530550 Ry
     energy             new  =     -65.1881062879 Ry

     CASE: energy            _new < energy            _old

[...]

     number of scf cycles    =   3
     number of bfgs steps    =   2

     energy             old  =     -65.1881062879 Ry
     energy             new  =     -65.1881947073 Ry

     CASE: energy            _new < energy            _old

     new trust radius        =       0.0007467828 bohr
     new conv_thr            =            2.7E-14 Ry

ATOMIC_POSITIONS (crystal)
Si            0.2480393089        0.2558820732        0.2480393089
C             0.0019606911       -0.0058820732        0.0019606911

     Writing output data file ./tmp/SiC.save/
     NEW-OLD atomic charge density approx. for the potential

     Self-consistent Calculation

[...]

     Threshold (ethr) on eigenvalues was too large:
     Diagonalizing with lowered threshold

     Davidson diagonalization with overlap
     ethr =  1.47E-09,  avg # of iterations =  2.1

[...]

     total energy              =     -65.18819505 Ry
     estimated scf accuracy    <          3.4E-13 Ry

     iteration #  6     ecut=    60.00 Ry     beta= 0.70
     Davidson diagonalization with overlap
     ethr =  1.00E-13,  avg # of iterations =  1.2

     End of self-consistent calculation

     Number of k-points >= 100: set verbosity='high' to print the bands.

     the Fermi energy is    10.3095 ev

!    total energy              =     -65.18819505 Ry

     total all-electron energy =      -656.298157 Ry
     estimated scf accuracy    <          1.2E-14 Ry

     The total energy is the sum of the following terms:
     one-electron contribution =       6.01111179 Ry
     hartree contribution      =       2.35317908 Ry
     xc contribution           =     -10.95836479 Ry
     ewald contribution        =     -20.85067320 Ry
     one-center paw contrib.   =     -41.74344792 Ry

     convergence has been achieved in   6 iterations

     Forces acting on atoms (cartesian axes, Ry/au):

     atom    1 type  1   force =     0.00000619    0.00000619    0.00000619
     atom    2 type  2   force =    -0.00000619   -0.00000619   -0.00000619

     Total force =     0.000015     Total SCF correction =     0.000000

     Computing stress (Cartesian axis) and pressure

          total   stress  (Ry/bohr**3)                   (kbar)     P=       23.43
   0.00015929  -0.00097369  -0.00097369           23.43     -143.24     -143.24
  -0.00097369   0.00015929  -0.00097369         -143.24       23.43     -143.24
  -0.00097369  -0.00097369   0.00015929         -143.24     -143.24       23.43

     Energy error            =      3.4E-07 Ry
     Gradient error          =      6.2E-06 Ry/Bohr

     bfgs converged in   4 scf cycles and   3 bfgs steps
     (criteria: energy <  1.0E-05 Ry, force <  1.0E-04 Ry/Bohr)

     End of BFGS Geometry Optimization

     Final energy             =     -65.1881950471 Ry

     File ./tmp/SiC.bfgs deleted, as requested
Begin final coordinates

ATOMIC_POSITIONS (crystal)
Si            0.2480393089        0.2558820732        0.2480393089
C             0.0019606911       -0.0058820732        0.0019606911
End final coordinates

     Writing output data file ./tmp/SiC.save/

     General routines

     Parallel routines

   This run was terminated on:  17:51: 8  21Oct2021

   JOB DONE.