     Program PWSCF v.6.8 starts on 21Oct2021 at 17:20:53

     R & G space division:  proc/nbgrp/npool/nimage =      24

     Reading input from Dst01_01.in

     Current dimensions of program PWSCF are:
     Max number of different atomic species (ntypx) = 10
     Max number of k-points (npk) =  40000
     Max angular momentum in pseudopotentials (lmaxx) =  4
     Message from routine iosys:
     BEWARE:  force calculation with tetrahedra (not recommanded)
     Message from routine iosys:
     BEWARE: stress calculation with tetrahedra (not recommanded)
     file Si.pbe-n-kjpaw_psl.1.0.0.UPF: wavefunction(s)  3S 3P renormalized
     file C.pbe-n-kjpaw_psl.1.0.0.UPF: wavefunction(s)  2S 2P renormalized

     Using Slab Decomposition

     bravais-lattice index     =            0
     lattice parameter (alat)  =       8.2762  a.u.
     unit-cell volume          =     139.1234 (a.u.)^3
     number of atoms/cell      =            2
     number of atomic types    =            2
     number of electrons       =         8.00
     number of Kohn-Sham states=            8
     kinetic-energy cutoff     =      60.0000  Ry
     charge density cutoff     =     480.0000  Ry
     scf convergence threshold =      1.0E-12
     mixing beta               =       0.7000
     number of iterations used =            8  plain     mixing
     energy convergence thresh.=      1.0E-05
     force convergence thresh. =      1.0E-04
     Exchange-correlation= SLA  PW   PBX  PBC
                           (   1   4   3   4   0   0   0)
     nstep                     =           50

     celldm(1)=   8.276169  celldm(2)=   0.000000  celldm(3)=   0.000000
     celldm(4)=   0.000000  celldm(5)=   0.000000  celldm(6)=   0.000000

     crystal axes: (cart. coord. in units of alat)
               a(1) = (  -0.502250   0.001492   0.499243 )
               a(2) = (  -0.008319   0.493921   0.492416 )
               a(3) = (  -0.502995   0.501493   0.000747 )

     reciprocal axes: (cart. coord. in units 2 pi/alat)
               b(1) = ( -1.004699 -1.009189  0.995300 )
               b(2) = (  1.020147  1.021679  1.023238 )
               b(3) = ( -1.001754  0.990796 -1.010749 )

     PseudoPot. # 1 for Si read from file:
     /opt/pbe/Si.pbe-n-kjpaw_psl.1.0.0.UPF
     MD5 check sum: c0017aaf58f3391b47f56383898ff6ca
     Pseudo is Projector augmented-wave + core cor, Zval =  4.0
     Generated using 'atomic' code by A. Dal Corso  v.6.7MaX
     Shape of augmentation charge: PSQ
     Using radial grid of 1141 points,  6 beta functions with:
                l(1) =   0
                l(2) =   0
                l(3) =   1
                l(4) =   1
                l(5) =   2
                l(6) =   2
     Q(r) pseudized with 0 coefficients

     PseudoPot. # 2 for C  read from file:
     /opt/pbe/C.pbe-n-kjpaw_psl.1.0.0.UPF
     MD5 check sum: 8e1159f88321651dfc8dcabf1d078809
     Pseudo is Projector augmented-wave + core cor, Zval =  4.0
     Generated using 'atomic' code by A. Dal Corso  v.6.7MaX
     Shape of augmentation charge: PSQ
     Using radial grid of 1073 points,  4 beta functions with:
                l(1) =   0
                l(2) =   0
                l(3) =   1
                l(4) =   1
     Q(r) pseudized with 0 coefficients

     atomic species   valence    mass     pseudopotential
        Si             4.00    28.08500     Si( 1.00)
        C              4.00    12.01100     C ( 1.00)

     No symmetry found

   Cartesian axes

     site n.     atom                  positions (alat units)
         1           Si  tau(   1) = (  -0.2533909   0.2492265   0.2481012  )
         2           C   tau(   2) = (   0.0000000   0.0000000   0.0000000  )

     number of k points=  1376 (tetrahedron method)

     Number of k-points >= 100: set verbosity='high' to print them.

     Initial potential from superposition of free atoms

     starting charge    7.99940, renormalised to    8.00000
     Starting wfcs are    8 randomized atomic wfcs
     Checking if some PAW data can be deallocated...

     Self-consistent Calculation

     iteration #  1     ecut=    60.00 Ry     beta= 0.70
     Davidson diagonalization with overlap
     ethr =  1.00E-02,  avg # of iterations =  3.9

     total energy              =     -65.03629712 Ry
     estimated scf accuracy    <       0.44260986 Ry

[...]

     iteration #  6     ecut=    60.00 Ry     beta= 0.70
     Davidson diagonalization with overlap
     c_bands:  1 eigenvalues not converged
     c_bands:  1 eigenvalues not converged
     ethr =  3.47E-08,  avg # of iterations =  4.5

[...]

     End of self-consistent calculation

     Number of k-points >= 100: set verbosity='high' to print the bands.

     the Fermi energy is    10.7030 ev

!    total energy              =     -65.19888140 Ry

     total all-electron energy =      -656.308844 Ry
     estimated scf accuracy    <          4.9E-14 Ry

     The total energy is the sum of the following terms:
     one-electron contribution =       6.14737988 Ry
     hartree contribution      =       2.33168858 Ry
     xc contribution           =     -10.97951741 Ry
     ewald contribution        =     -20.95418441 Ry
     one-center paw contrib.   =     -41.74424805 Ry

     convergence has been achieved in  12 iterations

     Forces acting on atoms (cartesian axes, Ry/au):

     atom    1 type  1   force =    -0.00486456   -0.00572054   -0.00662095
     atom    2 type  2   force =     0.00486456    0.00572054    0.00662095

     Total force =     0.014158     Total SCF correction =     0.000000

     Computing stress (Cartesian axis) and pressure

          total   stress  (Ry/bohr**3)                   (kbar)     P=       43.07
   0.00024102   0.00034666   0.00029302           35.45       51.00       43.10
   0.00034666   0.00029342   0.00023915           51.00       43.16       35.18
   0.00029302   0.00023915   0.00034385           43.10       35.18       50.58

     BFGS Geometry Optimization
     Energy error            =      0.0E+00 Ry
     Gradient error          =      6.6E-03 Ry/Bohr

     number of scf cycles    =   1
     number of bfgs steps    =   0

     energy             new  =     -65.1988814014 Ry

     new trust radius        =       0.0100112697 bohr
     new conv_thr            =            1.0E-12 Ry

ATOMIC_POSITIONS (crystal)
Si            0.2504918575        0.2478755955        0.2507125659
C            -0.0004918575        0.0021244045       -0.0007125659

     Writing output data file ./tmp/SiC.save/
     NEW-OLD atomic charge density approx. for the potential

[...]

     Energy error            =      1.1E-04 Ry
     Gradient error          =      1.1E-03 Ry/Bohr

     number of scf cycles    =   2
     number of bfgs steps    =   1

     energy             old  =     -65.1988814014 Ry
     energy             new  =     -65.1989953996 Ry

     CASE: energy            _new < energy            _old

     new trust radius        =       0.0016925959 bohr
     new conv_thr            =            1.1E-13 Ry

ATOMIC_POSITIONS (crystal)
Si            0.2505410752        0.2475237372        0.2508293981
C            -0.0005410752        0.0024762628       -0.0008293981

     Writing output data file ./tmp/SiC.save/
     NEW-OLD atomic charge density approx. for the potential

     Self-consistent Calculation

[...]

     Threshold (ethr) on eigenvalues was too large:
     Diagonalizing with lowered threshold

     Davidson diagonalization with overlap
     ethr =  8.57E-09,  avg # of iterations =  2.0

[...]

     total energy              =     -65.19899791 Ry
     estimated scf accuracy    <          1.5E-12 Ry

     iteration #  6     ecut=    60.00 Ry     beta= 0.70
     Davidson diagonalization with overlap
     ethr =  1.00E-13,  avg # of iterations =  1.2

     End of self-consistent calculation

     Number of k-points >= 100: set verbosity='high' to print the bands.

     the Fermi energy is    10.7021 ev

!    total energy              =     -65.19899791 Ry

     total all-electron energy =      -656.308960 Ry
     estimated scf accuracy    <          3.9E-14 Ry

     The total energy is the sum of the following terms:
     one-electron contribution =       6.15108598 Ry
     hartree contribution      =       2.32998599 Ry
     xc contribution           =     -10.97900578 Ry
     ewald contribution        =     -20.95689896 Ry
     one-center paw contrib.   =     -41.74416514 Ry

     convergence has been achieved in   6 iterations

     Forces acting on atoms (cartesian axes, Ry/au):

     atom    1 type  1   force =     0.00000927   -0.00001920   -0.00004287
     atom    2 type  2   force =    -0.00000927    0.00001920    0.00004287

     Total force =     0.000068     Total SCF correction =     0.000000

     Computing stress (Cartesian axis) and pressure

          total   stress  (Ry/bohr**3)                   (kbar)     P=       41.90
   0.00023315   0.00030375   0.00025491           34.30       44.68       37.50
   0.00030375   0.00028552   0.00020527           44.68       42.00       30.20
   0.00025491   0.00020527   0.00033589           37.50       30.20       49.41

     Energy error            =      2.5E-06 Ry
     Gradient error          =      4.3E-05 Ry/Bohr

     bfgs converged in   3 scf cycles and   2 bfgs steps
     (criteria: energy <  1.0E-05 Ry, force <  1.0E-04 Ry/Bohr)

     End of BFGS Geometry Optimization

     Final energy             =     -65.1989979100 Ry

     File ./tmp/SiC.bfgs deleted, as requested
Begin final coordinates

ATOMIC_POSITIONS (crystal)
Si            0.2505410752        0.2475237372        0.2508293981
C            -0.0005410752        0.0024762628       -0.0008293981
End final coordinates

     Writing output data file ./tmp/SiC.save/

     General routines

     Parallel routines

   This run was terminated on:  17:24:53  21Oct2021

   JOB DONE.