     Program PWSCF v.6.8 starts on 21Oct2021 at 17:57: 3

     R & G space division:  proc/nbgrp/npool/nimage =      24

     Reading input from Dst01_10.in

     Current dimensions of program PWSCF are:
     Max number of different atomic species (ntypx) = 10
     Max number of k-points (npk) =  40000
     Max angular momentum in pseudopotentials (lmaxx) =  4
     Message from routine iosys:
     BEWARE:  force calculation with tetrahedra (not recommanded)
     Message from routine iosys:
     BEWARE: stress calculation with tetrahedra (not recommanded)
     file Si.pbe-n-kjpaw_psl.1.0.0.UPF: wavefunction(s)  3S 3P renormalized
     file C.pbe-n-kjpaw_psl.1.0.0.UPF: wavefunction(s)  2S 2P renormalized

     Using Slab Decomposition

     bravais-lattice index     =            0
     lattice parameter (alat)  =       8.2762  a.u.
     unit-cell volume          =     143.7319 (a.u.)^3
     number of atoms/cell      =            2
     number of atomic types    =            2
     number of electrons       =         8.00
     number of Kohn-Sham states=            8
     kinetic-energy cutoff     =      60.0000  Ry
     charge density cutoff     =     480.0000  Ry
     scf convergence threshold =      1.0E-12
     mixing beta               =       0.7000
     number of iterations used =            8  plain     mixing
     energy convergence thresh.=      1.0E-05
     force convergence thresh. =      1.0E-04
     Exchange-correlation= SLA  PW   PBX  PBC
                           (   1   4   3   4   0   0   0)
     nstep                     =           50

     celldm(1)=   8.276169  celldm(2)=   0.000000  celldm(3)=   0.000000
     celldm(4)=   0.000000  celldm(5)=   0.000000  celldm(6)=   0.000000

     crystal axes: (cart. coord. in units of alat)
               a(1) = (  -0.498200  -0.001205   0.500595 )
               a(2) = (   0.006558   0.504751   0.505948 )
               a(3) = (  -0.497597   0.498796  -0.000602 )

     reciprocal axes: (cart. coord. in units 2 pi/alat)
               b(1) = ( -0.996520 -0.992913  1.003480 )
               b(2) = (  0.984789  0.983608  0.982443 )
               b(3) = ( -0.998954  1.007079 -0.991749 )

     PseudoPot. # 1 for Si read from file:
     /opt/pbe/Si.pbe-n-kjpaw_psl.1.0.0.UPF
     MD5 check sum: c0017aaf58f3391b47f56383898ff6ca
     Pseudo is Projector augmented-wave + core cor, Zval =  4.0
     Generated using 'atomic' code by A. Dal Corso  v.6.7MaX
     Shape of augmentation charge: PSQ
     Using radial grid of 1141 points,  6 beta functions with:
                l(1) =   0
                l(2) =   0
                l(3) =   1
                l(4) =   1
                l(5) =   2
                l(6) =   2
     Q(r) pseudized with 0 coefficients

     PseudoPot. # 2 for C  read from file:
     /opt/pbe/C.pbe-n-kjpaw_psl.1.0.0.UPF
     MD5 check sum: 8e1159f88321651dfc8dcabf1d078809
     Pseudo is Projector augmented-wave + core cor, Zval =  4.0
     Generated using 'atomic' code by A. Dal Corso  v.6.7MaX
     Shape of augmentation charge: PSQ
     Using radial grid of 1073 points,  4 beta functions with:
                l(1) =   0
                l(2) =   0
                l(3) =   1
                l(4) =   1
     Q(r) pseudized with 0 coefficients

     atomic species   valence    mass     pseudopotential
        Si             4.00    28.08500     Si( 1.00)
        C              4.00    12.01100     C ( 1.00)

     No symmetry found

   Cartesian axes

     site n.     atom                  positions (alat units)
         1           Si  tau(   1) = (  -0.2473097   0.2505854   0.2514853  )
         2           C   tau(   2) = (   0.0000000   0.0000000   0.0000000  )

     number of k points=  1376 (tetrahedron method)

     Number of k-points >= 100: set verbosity='high' to print them.

     Initial potential from superposition of free atoms

     starting charge    7.99940, renormalised to    8.00000
     Starting wfcs are    8 randomized atomic wfcs
     Checking if some PAW data can be deallocated...

     Self-consistent Calculation

     iteration #  1     ecut=    60.00 Ry     beta= 0.70
     Davidson diagonalization with overlap
     ethr =  1.00E-02,  avg # of iterations =  3.8

     total energy              =     -65.03966210 Ry
     estimated scf accuracy    <       0.42861025 Ry

[...]

     iteration #  6     ecut=    60.00 Ry     beta= 0.70
     Davidson diagonalization with overlap
     c_bands:  1 eigenvalues not converged
     c_bands:  1 eigenvalues not converged
     ethr =  4.07E-08,  avg # of iterations =  4.5

[...]

     End of self-consistent calculation

     Number of k-points >= 100: set verbosity='high' to print the bands.

     the Fermi energy is    10.1718 ev

!    total energy              =     -65.19950767 Ry

     total all-electron energy =      -656.309470 Ry
     estimated scf accuracy    <          1.1E-14 Ry

     The total energy is the sum of the following terms:
     one-electron contribution =       5.84387777 Ry
     hartree contribution      =       2.35523632 Ry
     xc contribution           =     -10.92877105 Ry
     ewald contribution        =     -20.72886580 Ry
     one-center paw contrib.   =     -41.74098490 Ry

     convergence has been achieved in  12 iterations

     Forces acting on atoms (cartesian axes, Ry/au):

     atom    1 type  1   force =     0.00212440    0.00285388    0.00355578
     atom    2 type  2   force =    -0.00212440   -0.00285388   -0.00355578

     Total force =     0.007114     Total SCF correction =     0.000000

     Computing stress (Cartesian axis) and pressure

          total   stress  (Ry/bohr**3)                   (kbar)     P=      -27.90
  -0.00014768  -0.00024426  -0.00020120          -21.72      -35.93      -29.60
  -0.00024426  -0.00018929  -0.00015829          -35.93      -27.84      -23.29
  -0.00020120  -0.00015829  -0.00023212          -29.60      -23.29      -34.15

     BFGS Geometry Optimization
     Energy error            =      0.0E+00 Ry
     Gradient error          =      3.6E-03 Ry/Bohr

     number of scf cycles    =   1
     number of bfgs steps    =   0

     energy             new  =     -65.1995076722 Ry

     new trust radius        =       0.0050300363 bohr
     new conv_thr            =            1.0E-12 Ry

ATOMIC_POSITIONS (crystal)
Si            0.2498329525        0.2510140604        0.2496647557
C             0.0001670475       -0.0010140604        0.0003352443

     Writing output data file ./tmp/SiC.save/
     NEW-OLD atomic charge density approx. for the potential

[...]

     Threshold (ethr) on eigenvalues was too large:
     Diagonalizing with lowered threshold

     Davidson diagonalization with overlap
     ethr =  6.82E-08,  avg # of iterations =  1.4

[...]

     Energy error            =      3.3E-05 Ry
     Gradient error          =      1.0E-03 Ry/Bohr

     number of scf cycles    =   2
     number of bfgs steps    =   1

     energy             old  =     -65.1995076722 Ry
     energy             new  =     -65.1995405061 Ry

     CASE: energy            _new < energy            _old

     new trust radius        =       0.0021163608 bohr
     new conv_thr            =            3.3E-14 Ry

ATOMIC_POSITIONS (crystal)
Si            0.2497421055        0.2514449780        0.2495206756
C             0.0002578945       -0.0014449780        0.0004793244

     Writing output data file ./tmp/SiC.save/
     NEW-OLD atomic charge density approx. for the potential

     Self-consistent Calculation

[...]

     Threshold (ethr) on eigenvalues was too large:
     Diagonalizing with lowered threshold

     Davidson diagonalization with overlap
     ethr =  1.19E-08,  avg # of iterations =  2.0

[...]

     total energy              =     -65.19954362 Ry
     estimated scf accuracy    <          6.4E-14 Ry

     iteration #  7     ecut=    60.00 Ry     beta= 0.70
     Davidson diagonalization with overlap
     ethr =  1.00E-13,  avg # of iterations =  1.0

     End of self-consistent calculation

     Number of k-points >= 100: set verbosity='high' to print the bands.

     the Fermi energy is    10.1697 ev

!    total energy              =     -65.19954362 Ry

     total all-electron energy =      -656.309506 Ry
     estimated scf accuracy    <          1.5E-15 Ry

     The total energy is the sum of the following terms:
     one-electron contribution =       5.84567396 Ry
     hartree contribution      =       2.35441492 Ry
     xc contribution           =     -10.92853194 Ry
     ewald contribution        =     -20.73015215 Ry
     one-center paw contrib.   =     -41.74094841 Ry

     convergence has been achieved in   7 iterations

     Forces acting on atoms (cartesian axes, Ry/au):

     atom    1 type  1   force =     0.00000787   -0.00000987   -0.00002562
     atom    2 type  2   force =    -0.00000787    0.00000987    0.00002562

     Total force =     0.000040     Total SCF correction =     0.000000

     Computing stress (Cartesian axis) and pressure

          total   stress  (Ry/bohr**3)                   (kbar)     P=      -28.41
  -0.00015104  -0.00022774  -0.00018857          -22.22      -33.50      -27.74
  -0.00022774  -0.00019270  -0.00014992          -33.50      -28.35      -22.05
  -0.00018857  -0.00014992  -0.00023559          -27.74      -22.05      -34.66

     Energy error            =      3.1E-06 Ry
     Gradient error          =      2.6E-05 Ry/Bohr

     bfgs converged in   3 scf cycles and   2 bfgs steps
     (criteria: energy <  1.0E-05 Ry, force <  1.0E-04 Ry/Bohr)

     End of BFGS Geometry Optimization

     Final energy             =     -65.1995436208 Ry

     File ./tmp/SiC.bfgs deleted, as requested
Begin final coordinates

ATOMIC_POSITIONS (crystal)
Si            0.2497421055        0.2514449780        0.2495206756
C             0.0002578945       -0.0014449780        0.0004793244
End final coordinates

     Writing output data file ./tmp/SiC.save/

     General routines

     Parallel routines

   This run was terminated on:  18: 1: 9  21Oct2021

   JOB DONE.